p edge 60 59 26
e 1 20
e 2 43
e 3 18
e 4 56
e 4 49
e 5 37
e 5 22
e 6 39
e 7 38
e 7 60
e 8 38
e 9 10
e 9 38
e 11 36
e 12 24
e 12 53
e 12 54
e 12 58
e 12 33
e 13 44
e 13 55
e 13 23
e 14 15
e 14 34
e 14 55
e 16 47
e 16 48
e 16 17
e 17 46
e 17 27
e 18 29
e 19 51
e 20 59
e 20 31
e 21 50
e 21 58
e 22 46
e 23 27
e 23 38
e 25 51
e 25 31
e 26 40
e 26 43
e 28 33
e 28 42
e 28 37
e 29 49
e 30 52
e 30 42
e 31 43
e 32 35
e 32 43
e 35 57
e 36 43
e 37 49
e 39 43
e 41 42
e 42 43
e 45 55
